300
200 200
1 139 577
2 139 705
3 139 446
4 139 190
5 139 644
6 138 225
7 137 516
8 137 682
9 136 556
10 136 126
11 135 286
12 135 764
13 134 131
14 134 514
15 134 427
16 134 569
17 134 251
18 133 770
19 133 973
20 133 376
21 132 459
22 131 181
23 131 408
24 131 143
25 130 611
26 129 756
27 128 11
28 128 395
29 128 192
30 127 254
31 127 591
32 127 459
33 127 874
34 127 28
35 127 495
36 126 566
37 125 236
38 124 337
39 124 2
40 124 508
41 123 336
42 123 889
43 120 382
44 119 24
45 119 192
46 119 932
47 119 7
48 119 923
49 118 148
50 118 85
51 117 880
52 117 691
53 115 567
54 115 694
55 114 775
56 113 132
57 113 859
58 112 551
59 112 403
60 112 215
61 110 656
62 108 495
63 108 254
64 108 841
65 108 110
66 107 638
67 107 685
68 106 158
69 106 844
70 106 446
71 106 264
72 106 851
73 105 73
74 105 111
75 105 888
76 105 787
77 104 752
78 104 125
79 104 814
80 104 605
81 103 226
82 101 50
83 101 230
84 101 884
85 101 228
86 100 62
87 100 632
88 100 583
89 100 552
90 99 243
91 98 260
92 98 27
93 98 453
94 97 872
95 97 403
96 97 738
97 97 141
98 96 231
99 96 331
100 95 784
101 95 230
102 94 990
103 94 218
104 93 71
105 92 732
106 91 842
107 91 746
108 90 967
109 90 845
110 90 129
111 90 585
112 89 132
113 89 894
114 89 248
115 89 903
116 89 316
117 88 425
118 88 811
119 87 997
120 87 735
121 86 324
122 86 286
123 85 638
124 85 88
125 85 117
126 85 588
127 84 879
128 84 833
129 84 113
130 83 208
131 82 227
132 82 392
133 82 261
134 82 653
135 81 296
136 80 855
137 80 315
138 80 879
139 80 390
140 80 388
141 80 519
142 79 434
143 79 124
144 79 364
145 79 300
146 78 676
147 78 678
148 76 527
149 76 274
150 75 666
151 75 810
152 75 4
153 74 102
154 74 783
155 73 618
156 73 648
157 73 671
158 73 448
159 72 657
160 72 448
161 72 274
162 72 793
163 72 211
164 72 834
165 71 74
166 71 721
167 70 91
168 70 507
169 70 25
170 70 840
171 70 227
172 69 354
173 68 383
174 68 306
175 67 312
176 67 921
177 67 934
178 66 370
179 65 678
180 65 9
181 65 354
182 65 234
183 64 315
184 64 287
185 63 617
186 63 420
187 63 71
188 62 872
189 62 873
190 62 100
191 62 72
192 61 846
193 61 498
194 60 596
195 59 24
196 58 325
197 57 851
198 57 505
199 56 250
200 56 679
201 56 599
202 56 780
203 56 485
204 55 445
205 55 913
206 55 216
207 55 737
208 54 761
209 54 918
210 54 561
211 53 322
212 53 793
213 53 430
214 53 588
215 53 136
216 51 133
217 51 886
218 51 938
219 51 300
220 50 474
221 50 222
222 50 192
223 50 97
224 49 421
225 49 596
226 49 962
227 48 903
228 46 3
229 45 411
230 44 159
231 43 1
232 43 63
233 43 522
234 43 441
235 43 494
236 43 115
237 43 568
238 42 484
239 41 567
240 40 775
241 40 816
242 39 557
243 39 937
244 38 302
245 38 369
246 38 157
247 38 555
248 38 378
249 38 314
250 37 947
251 37 433
252 37 166
253 36 523
254 36 991
255 35 10
256 35 213
257 35 870
258 35 700
259 34 845
260 33 803
261 33 359
262 33 641
263 33 590
264 33 341
265 33 310
266 33 896
267 32 503
268 32 68
269 32 704
270 32 692
271 31 246
272 31 945
273 30 137
274 30 805
275 29 955
276 29 439
277 29 128
278 29 772
279 29 745
280 29 169
281 29 200
282 28 661
283 28 598
284 28 101
285 27 909
286 27 647
287 27 604
288 26 102
289 25 913
290 25 446
291 25 181
292 24 781
293 23 863
294 23 459
295 22 346
296 22 992
297 21 645
298 21 552
299 20 554
300 20 386
